c "896942.clq"
p edge 100 1344
e 1 17
e 1 18
e 1 19
e 1 21
e 1 22
e 1 23
e 1 24
e 1 27
e 1 30
e 1 33
e 1 44
e 1 53
e 1 67
e 1 69
e 1 83
e 1 90
e 1 94
e 2 17
e 2 18
e 2 19
e 2 20
e 2 21
e 2 22
e 2 23
e 2 24
e 2 26
e 2 28
e 2 32
e 2 33
e 2 36
e 2 38
e 2 42
e 2 47
e 2 50
e 2 53
e 2 62
e 2 65
e 2 66
e 2 69
e 2 74
e 2 78
e 2 80
e 2 95
e 2 100
e 3 17
e 3 18
e 3 21
e 3 26
e 3 30
e 3 33
e 3 47
e 3 60
e 3 84
e 3 86
e 3 90
e 3 93
e 4 17
e 4 18
e 4 19
e 4 20
e 4 21
e 4 22
e 4 23
e 4 24
e 4 28
e 4 30
e 4 31
e 4 32
e 4 33
e 4 35
e 4 39
e 4 43
e 4 46
e 4 48
e 4 51
e 4 63
e 4 71
e 4 75
e 4 81
e 4 82
e 4 85
e 4 87
e 4 90
e 4 97
e 5 17
e 5 18
e 5 19
e 5 20
e 5 21
e 5 23
e 5 25
e 5 26
e 5 28
e 5 37
e 5 43
e 5 48
e 5 49
e 5 51
e 5 56
e 5 58
e 5 78
e 5 82
e 5 85
e 6 17
e 6 18
e 6 19
e 6 20
e 6 25
e 6 29
e 6 31
e 6 32
e 6 34
e 6 38
e 6 40
e 6 41
e 6 43
e 6 47
e 6 56
e 6 58
e 6 63
e 6 68
e 6 75
e 6 80
e 6 88
e 7 17
e 7 18
e 7 19
e 7 20
e 7 21
e 7 22
e 7 23
e 7 24
e 7 25
e 7 26
e 7 27
e 7 30
e 7 31
e 7 33
e 7 40
e 7 41
e 7 44
e 7 45
e 7 46
e 7 49
e 7 51
e 7 52
e 7 54
e 7 57
e 7 62
e 7 65
e 7 67
e 7 74
e 7 75
e 7 86
e 7 87
e 7 94
e 7 97
e 8 17
e 8 18
e 8 19
e 8 20
e 8 22
e 8 23
e 8 25
e 8 28
e 8 35
e 8 37
e 8 42
e 8 46
e 8 47
e 8 50
e 8 61
e 8 74
e 8 80
e 9 17
e 9 18
e 9 19
e 9 20
e 9 21
e 9 22
e 9 23
e 9 25
e 9 27
e 9 28
e 9 30
e 9 31
e 9 34
e 9 38
e 9 40
e 9 43
e 9 46
e 9 47
e 9 49
e 9 53
e 9 55
e 9 57
e 9 58
e 9 60
e 9 62
e 9 63
e 9 64
e 9 71
e 9 74
e 9 77
e 9 90
e 10 17
e 10 18
e 10 19
e 10 20
e 10 22
e 10 23
e 10 24
e 10 26
e 10 27
e 10 28
e 10 29
e 10 31
e 10 32
e 10 33
e 10 34
e 10 37
e 10 39
e 10 44
e 10 47
e 10 48
e 10 58
e 10 65
e 10 68
e 10 83
e 10 85
e 10 88
e 10 92
e 10 98
e 11 17
e 11 18
e 11 21
e 11 33
e 11 46
e 11 55
e 11 56
e 11 59
e 11 60
e 11 72
e 11 85
e 11 94
e 12 17
e 12 18
e 12 19
e 12 20
e 12 21
e 12 22
e 12 24
e 12 25
e 12 28
e 12 29
e 12 32
e 12 33
e 12 36
e 12 39
e 12 42
e 12 46
e 12 48
e 12 56
e 12 65
e 12 66
e 12 73
e 12 76
e 12 78
e 12 81
e 12 88
e 12 96
e 12 98
e 13 17
e 13 18
e 13 19
e 13 20
e 13 21
e 13 23
e 13 25
e 13 27
e 13 28
e 13 30
e 13 32
e 13 35
e 13 39
e 13 40
e 13 42
e 13 43
e 13 50
e 13 51
e 13 56
e 13 58
e 13 59
e 13 61
e 13 73
e 13 77
e 13 80
e 13 82
e 13 92
e 13 94
e 14 17
e 14 19
e 14 20
e 14 22
e 14 23
e 14 24
e 14 25
e 14 26
e 14 27
e 14 28
e 14 33
e 14 35
e 14 41
e 14 42
e 14 49
e 14 50
e 14 55
e 14 67
e 14 83
e 14 84
e 14 89
e 14 94
e 14 96
e 15 17
e 15 18
e 15 19
e 15 20
e 15 21
e 15 22
e 15 23
e 15 24
e 15 25
e 15 26
e 15 27
e 15 29
e 15 30
e 15 32
e 15 34
e 15 36
e 15 37
e 15 38
e 15 39
e 15 40
e 15 42
e 15 48
e 15 51
e 15 55
e 15 57
e 15 58
e 15 59
e 15 60
e 15 64
e 15 69
e 15 71
e 15 72
e 15 75
e 15 97
e 16 17
e 16 18
e 16 19
e 16 20
e 16 21
e 16 22
e 16 24
e 16 26
e 16 28
e 16 29
e 16 30
e 16 38
e 16 41
e 16 42
e 16 44
e 16 48
e 16 49
e 16 50
e 16 51
e 16 52
e 16 53
e 16 55
e 16 57
e 16 61
e 16 66
e 16 93
e 17 18
e 17 19
e 17 20
e 17 21
e 17 22
e 17 23
e 17 24
e 17 25
e 17 27
e 17 28
e 17 29
e 17 30
e 17 31
e 17 33
e 17 34
e 17 35
e 17 36
e 17 37
e 17 38
e 17 39
e 17 40
e 17 41
e 17 42
e 17 43
e 17 44
e 17 46
e 17 52
e 17 53
e 17 57
e 17 58
e 17 59
e 17 62
e 17 63
e 17 65
e 17 67
e 17 68
e 17 70
e 17 71
e 17 73
e 17 77
e 17 79
e 17 80
e 17 81
e 17 86
e 17 91
e 17 92
e 17 93
e 18 19
e 18 20
e 18 21
e 18 22
e 18 23
e 18 24
e 18 25
e 18 26
e 18 27
e 18 28
e 18 31
e 18 39
e 18 40
e 18 41
e 18 42
e 18 43
e 18 46
e 18 47
e 18 48
e 18 49
e 18 50
e 18 52
e 18 53
e 18 54
e 18 55
e 18 56
e 18 57
e 18 59
e 18 60
e 18 64
e 18 66
e 18 70
e 18 71
e 18 73
e 18 76
e 18 79
e 18 81
e 18 82
e 18 83
e 18 87
e 18 91
e 18 92
e 18 97
e 18 100
e 19 20
e 19 21
e 19 22
e 19 23
e 19 24
e 19 25
e 19 26
e 19 27
e 19 29
e 19 31
e 19 32
e 19 33
e 19 34
e 19 35
e 19 36
e 19 37
e 19 40
e 19 44
e 19 45
e 19 46
e 19 49
e 19 51
e 19 52
e 19 54
e 19 55
e 19 61
e 19 63
e 19 65
e 19 73
e 19 76
e 19 77
e 19 81
e 19 83
e 19 88
e 19 90
e 19 92
e 19 93
e 19 95
e 19 99
e 20 21
e 20 22
e 20 23
e 20 24
e 20 26
e 20 27
e 20 28
e 20 29
e 20 30
e 20 31
e 20 36
e 20 37
e 20 38
e 20 40
e 20 41
e 20 45
e 20 46
e 20 49
e 20 51
e 20 54
e 20 55
e 20 56
e 20 60
e 20 65
e 20 67
e 20 68
e 20 70
e 20 73
e 20 76
e 20 78
e 20 79
e 20 80
e 20 83
e 20 86
e 20 88
e 20 90
e 20 93
e 20 95
e 20 97
e 20 98
e 20 100
e 21 22
e 21 23
e 21 24
e 21 25
e 21 26
e 21 27
e 21 29
e 21 30
e 21 31
e 21 34
e 21 35
e 21 36
e 21 37
e 21 39
e 21 40
e 21 43
e 21 44
e 21 45
e 21 48
e 21 49
e 21 52
e 21 53
e 21 54
e 21 56
e 21 57
e 21 58
e 21 63
e 21 64
e 21 76
e 21 81
e 21 82
e 21 93
e 21 95
e 21 100
e 22 24
e 22 25
e 22 26
e 22 27
e 22 29
e 22 31
e 22 33
e 22 36
e 22 38
e 22 48
e 22 54
e 22 57
e 22 62
e 22 64
e 22 66
e 22 82
e 22 83
e 22 86
e 22 87
e 22 89
e 22 90
e 22 91
e 22 93
e 22 95
e 22 99
e 23 24
e 23 25
e 23 26
e 23 29
e 23 30
e 23 32
e 23 33
e 23 36
e 23 37
e 23 38
e 23 39
e 23 41
e 23 43
e 23 50
e 23 51
e 23 52
e 23 62
e 23 64
e 23 66
e 23 68
e 23 69
e 23 72
e 23 73
e 23 79
e 23 80
e 23 82
e 23 88
e 23 89
e 23 91
e 23 96
e 23 97
e 23 100
e 24 25
e 24 26
e 24 27
e 24 28
e 24 29
e 24 31
e 24 32
e 24 33
e 24 34
e 24 35
e 24 36
e 24 37
e 24 38
e 24 41
e 24 44
e 24 45
e 24 46
e 24 48
e 24 49
e 24 50
e 24 51
e 24 53
e 24 58
e 24 59
e 24 63
e 24 64
e 24 66
e 24 67
e 24 69
e 24 70
e 24 75
e 24 78
e 24 79
e 24 80
e 24 84
e 24 85
e 24 87
e 24 91
e 24 96
e 24 97
e 24 99
e 25 26
e 25 27
e 25 28
e 25 29
e 25 30
e 25 31
e 25 32
e 25 33
e 25 34
e 25 35
e 25 36
e 25 37
e 25 38
e 25 39
e 25 40
e 25 41
e 25 42
e 25 43
e 25 44
e 25 45
e 25 46
e 25 50
e 25 52
e 25 54
e 25 55
e 25 56
e 25 58
e 25 59
e 25 62
e 25 66
e 25 67
e 25 68
e 25 70
e 25 71
e 25 72
e 25 74
e 25 76
e 25 77
e 25 79
e 25 86
e 25 87
e 25 88
e 25 100
e 26 27
e 26 28
e 26 29
e 26 30
e 26 31
e 26 32
e 26 34
e 26 35
e 26 38
e 26 41
e 26 43
e 26 49
e 26 50
e 26 59
e 26 61
e 26 62
e 26 67
e 26 69
e 26 70
e 26 71
e 26 73
e 26 81
e 26 82
e 26 83
e 26 87
e 27 29
e 27 31
e 27 32
e 27 34
e 27 35
e 27 36
e 27 37
e 27 38
e 27 39
e 27 44
e 27 45
e 27 48
e 27 53
e 27 54
e 27 55
e 27 56
e 27 58
e 27 61
e 27 62
e 27 63
e 27 66
e 27 74
e 27 78
e 27 79
e 27 83
e 27 87
e 27 88
e 27 89
e 27 91
e 27 92
e 27 93
e 27 95
e 27 96
e 27 97
e 27 98
e 28 29
e 28 30
e 28 32
e 28 34
e 28 35
e 28 37
e 28 39
e 28 41
e 28 42
e 28 43
e 28 47
e 28 48
e 28 55
e 28 59
e 28 64
e 28 66
e 28 67
e 28 69
e 28 78
e 28 83
e 28 88
e 28 92
e 28 98
e 28 100
e 29 30
e 29 32
e 29 34
e 29 35
e 29 36
e 29 40
e 29 41
e 29 44
e 29 45
e 29 46
e 29 47
e 29 49
e 29 54
e 29 57
e 29 58
e 29 64
e 29 67
e 29 71
e 29 76
e 29 81
e 29 90
e 30 31
e 30 33
e 30 34
e 30 35
e 30 36
e 30 38
e 30 39
e 30 40
e 30 41
e 30 42
e 30 45
e 30 46
e 30 48
e 30 49
e 30 50
e 30 56
e 30 58
e 30 59
e 30 60
e 30 61
e 30 62
e 30 63
e 30 72
e 30 76
e 30 86
e 30 88
e 31 32
e 31 34
e 31 35
e 31 37
e 31 40
e 31 44
e 31 45
e 31 48
e 31 49
e 31 53
e 31 59
e 31 68
e 31 70
e 31 71
e 31 73
e 31 77
e 31 78
e 31 79
e 31 80
e 31 84
e 31 85
e 31 87
e 31 89
e 31 93
e 31 95
e 31 98
e 32 35
e 32 36
e 32 37
e 32 39
e 32 41
e 32 42
e 32 45
e 32 47
e 32 50
e 32 53
e 32 56
e 32 57
e 32 61
e 32 63
e 32 66
e 32 68
e 32 69
e 32 72
e 32 75
e 32 79
e 32 86
e 32 89
e 32 90
e 32 94
e 32 96
e 32 100
e 33 34
e 33 36
e 33 38
e 33 43
e 33 44
e 33 45
e 33 52
e 33 57
e 33 59
e 33 60
e 33 64
e 33 66
e 33 74
e 33 84
e 33 85
e 33 89
e 33 90
e 33 92
e 33 96
e 33 97
e 33 99
e 34 39
e 34 40
e 34 42
e 34 47
e 34 50
e 34 52
e 34 53
e 34 54
e 34 63
e 34 64
e 34 70
e 34 71
e 34 72
e 34 74
e 34 76
e 34 79
e 34 81
e 34 91
e 34 96
e 35 42
e 35 51
e 35 52
e 35 53
e 35 61
e 35 62
e 35 68
e 35 73
e 35 75
e 35 77
e 35 81
e 35 83
e 35 89
e 35 90
e 35 92
e 36 37
e 36 38
e 36 41
e 36 42
e 36 47
e 36 51
e 36 60
e 36 61
e 36 63
e 36 65
e 36 84
e 36 86
e 36 87
e 36 88
e 36 89
e 36 91
e 36 98
e 37 45
e 37 47
e 37 50
e 37 52
e 37 59
e 37 60
e 37 71
e 37 73
e 37 84
e 38 39
e 38 40
e 38 43
e 38 44
e 38 47
e 38 53
e 38 56
e 38 59
e 38 61
e 38 62
e 38 65
e 38 67
e 38 68
e 38 69
e 38 82
e 38 94
e 39 45
e 39 48
e 39 51
e 39 52
e 39 53
e 39 54
e 39 55
e 39 57
e 39 70
e 39 77
e 39 80
e 39 81
e 39 85
e 39 89
e 39 93
e 39 97
e 40 43
e 40 46
e 40 50
e 40 52
e 40 76
e 40 84
e 40 91
e 40 93
e 40 94
e 41 45
e 41 51
e 41 52
e 41 56
e 41 57
e 41 60
e 41 62
e 41 72
e 41 83
e 41 84
e 41 85
e 41 99
e 42 43
e 42 44
e 42 45
e 42 51
e 42 55
e 42 57
e 42 68
e 42 74
e 42 86
e 42 91
e 43 44
e 43 61
e 43 69
e 43 70
e 43 72
e 43 74
e 43 75
e 43 83
e 43 94
e 43 96
e 44 47
e 44 51
e 44 54
e 44 56
e 44 61
e 44 62
e 44 65
e 44 70
e 44 71
e 44 72
e 44 79
e 44 85
e 44 98
e 45 46
e 45 47
e 45 49
e 45 50
e 45 53
e 45 55
e 45 59
e 45 60
e 45 61
e 45 64
e 45 67
e 45 72
e 45 73
e 45 74
e 45 80
e 45 86
e 45 93
e 45 97
e 46 48
e 46 49
e 46 54
e 46 75
e 46 80
e 46 85
e 46 86
e 46 92
e 46 94
e 46 96
e 46 98
e 47 54
e 47 58
e 47 61
e 47 63
e 47 64
e 47 66
e 47 68
e 47 69
e 47 72
e 47 74
e 47 75
e 47 78
e 47 79
e 47 88
e 47 92
e 47 98
e 48 55
e 48 60
e 48 62
e 48 63
e 48 65
e 48 66
e 48 69
e 48 72
e 48 75
e 48 82
e 48 84
e 48 90
e 48 91
e 48 94
e 48 95
e 48 100
e 49 55
e 49 56
e 49 58
e 49 63
e 49 64
e 49 70
e 49 71
e 49 77
e 49 78
e 49 81
e 49 89
e 49 92
e 50 59
e 50 74
e 50 76
e 50 94
e 51 52
e 51 54
e 51 60
e 51 63
e 51 65
e 51 78
e 51 82
e 51 91
e 51 92
e 51 93
e 51 96
e 52 57
e 52 67
e 52 73
e 52 85
e 52 89
e 52 94
e 52 98
e 53 54
e 53 62
e 53 75
e 53 78
e 53 94
e 53 98
e 53 99
e 54 61
e 54 64
e 54 69
e 54 72
e 54 73
e 54 74
e 54 76
e 54 77
e 54 81
e 54 82
e 54 85
e 54 87
e 54 89
e 54 96
e 55 66
e 55 67
e 55 72
e 55 79
e 55 82
e 55 97
e 56 57
e 56 58
e 56 67
e 56 68
e 56 69
e 56 71
e 56 75
e 56 76
e 56 77
e 56 78
e 56 90
e 56 95
e 56 97
e 57 60
e 57 65
e 57 68
e 57 75
e 57 77
e 57 82
e 57 87
e 57 89
e 57 98
e 57 99
e 58 77
e 58 81
e 58 91
e 59 60
e 59 69
e 59 84
e 59 85
e 59 100
e 60 70
e 60 100
e 61 65
e 61 67
e 61 70
e 61 71
e 61 74
e 61 78
e 61 92
e 61 95
e 62 65
e 62 66
e 62 70
e 62 72
e 62 73
e 62 76
e 62 82
e 62 86
e 62 98
e 63 64
e 63 70
e 63 71
e 63 80
e 63 81
e 64 65
e 64 68
e 64 77
e 64 100
e 65 68
e 66 75
e 66 77
e 66 80
e 66 87
e 66 97
e 67 69
e 67 74
e 67 80
e 67 91
e 67 99
e 68 75
e 68 81
e 68 83
e 68 86
e 68 91
e 68 93
e 68 94
e 68 99
e 69 76
e 69 79
e 69 84
e 69 87
e 69 91
e 69 99
e 69 100
e 70 87
e 70 99
e 71 83
e 71 86
e 71 99
e 72 73
e 72 84
e 72 88
e 72 93
e 72 97
e 73 76
e 73 78
e 73 80
e 73 88
e 73 89
e 73 92
e 74 77
e 74 78
e 74 79
e 74 84
e 74 92
e 74 95
e 75 83
e 75 89
e 75 95
e 76 84
e 76 93
e 77 88
e 77 95
e 78 79
e 78 96
e 79 82
e 79 84
e 79 87
e 79 97
e 79 98
e 79 99
e 81 85
e 81 90
e 81 99
e 82 85
e 82 98
e 83 86
e 83 99
e 84 96
e 84 99
e 84 100
e 86 88
e 87 95
e 88 90
e 89 90
e 89 94
e 89 95
e 90 96
e 92 100
e 93 95
e 95 96
e 96 100
